Feasible trips for instance_0:
Source: D0, total_km: 27.00, total_weight: 632.00, total_volume: 0.58, score: 1.00
Deliveries: D0

Source: D1, total_km: 79.00, total_weight: 227.00, total_volume: 1.90, score: 1.00
Deliveries: D1

Source: D2, total_km: 79.00, total_weight: 206.00, total_volume: 2.40, score: 1.00
Deliveries: D2

Source: D3, total_km: 45.00, total_weight: 359.00, total_volume: 1.04, score: 1.00
Deliveries: D3

Source: D4, total_km: 79.00, total_weight: 567.00, total_volume: 2.62, score: 1.00
Deliveries: D4

Source: D1, total_km: 79.00, total_weight: 433.00, total_volume: 4.30, score: 0.50
Deliveries: D1, D2

Source: D1, total_km: 58.00, total_weight: 586.00, total_volume: 2.94, score: 0.47
Deliveries: D1, D3

Source: D1, total_km: 79.00, total_weight: 794.00, total_volume: 4.52, score: 0.50
Deliveries: D1, D4

Source: D2, total_km: 79.00, total_weight: 773.00, total_volume: 5.02, score: 0.50
Deliveries: D2, D4

Source: D3, total_km: 92.00, total_weight: 926.00, total_volume: 3.66, score: 0.74
Deliveries: D3, D4

Source: D0, total_km: 96.00, total_weight: 1218.00, total_volume: 3.52, score: 0.64
Deliveries: D0, D1, D3

Source: D1, total_km: 58.00, total_weight: 792.00, total_volume: 5.34, score: 0.29
Deliveries: D1, D2, D3

Source: D1, total_km: 79.00, total_weight: 1000.00, total_volume: 6.92, score: 0.33
Deliveries: D1, D2, D4

Source: D1, total_km: 105.00, total_weight: 1153.00, total_volume: 5.56, score: 0.52
Deliveries: D1, D3, D4

Source: D2, total_km: 105.00, total_weight: 1132.00, total_volume: 6.06, score: 0.52
Deliveries: D2, D3, D4


Gurobi 12.0.3 (win64) logging started Mon Aug  4 19:00:07 2025

Set parameter LogFile to value "Output/Logs\instance_0.log"
Set parameter TimeLimit to value 3600
Set parameter Seed to value 12345
Gurobi Optimizer version 12.0.3 build v12.0.3rc0 (win64 - Windows 11.0 (26100.2))

CPU model: Intel(R) Core(TM) i5-10310U CPU @ 1.70GHz, instruction set [SSE2|AVX|AVX2]
Thread count: 4 physical cores, 8 logical processors, using up to 8 threads

Non-default parameters:
TimeLimit  3600
Seed  12345

Optimize a model with 5 rows, 15 columns and 30 nonzeros
Model fingerprint: 0x753715f8
Variable types: 0 continuous, 15 integer (15 binary)
Coefficient statistics:
  Matrix range     [1e+00, 1e+00]
  Objective range  [3e-01, 1e+00]
  Bounds range     [1e+00, 1e+00]
  RHS range        [1e+00, 1e+00]
Found heuristic solution: objective 5.0000000
Presolve removed 1 rows and 2 columns
Presolve time: 0.00s
Presolved: 4 rows, 13 columns, 26 nonzeros
Variable types: 0 continuous, 13 integer (13 binary)

Root relaxation: objective 1.135762e+00, 3 iterations, 0.00 seconds (0.00 work units)

    Nodes    |    Current Node    |     Objective Bounds      |     Work
 Expl Unexpl |  Obj  Depth IntInf | Incumbent    BestBd   Gap | It/Node Time

*    0     0               0       1.1357616    1.13576  0.00%     -    0s

Explored 1 nodes (3 simplex iterations) in 0.01 seconds (0.00 work units)
Thread count was 8 (of 8 available processors)

Solution count 2: 1.13576 5 

Optimal solution found (tolerance 1.00e-04)
Best objective 1.135761589404e+00, best bound 1.135761589404e+00, gap 0.0000%
Selected trips for instance_0:
Trip 0: Source: D2, Total KM: 79.00, Weight: 773.00, Volume: 5.02, Deliveries: D2, D4, Score: 0.50
Trip 1: Source: D0, Total KM: 96.00, Weight: 1218.00, Volume: 3.52, Deliveries: D0, D1, D3, Score: 0.64
Deliveries count: 5
Feasible trips generated: 15
Trips selected: 2
Elapsed time (seconds): 0.03
